&CONTROL
   calculation = 'relax'
   pseudo_dir = '/dss/dsshome1/lxc08/ge97taz2/pseudo/all_pbe_UPF_v1.5'
   etot_conv_thr = 5.0E-4
   forc_conv_thr = 5.0E-3
   disk_io='none'
   outdir='./'
/
&SYSTEM
   ntyp             = 4
   starting_magnetization(1) = 0.0006394827272727273
   starting_magnetization(2) = 0.23820469400000002
   starting_magnetization(3) = 0.0069266983333333325
   nat              = 80 
   ibrav            = 0
   occupations = 'smearing' 
   smearing='marzari-vanderbilt'
   degauss = 0.2
   ecutwfc = 40
/
&ELECTRONS
   mixing_mode ='local-TF'
   mixing_beta = 0.2
   conv_thr = 1.0E-4 
   electron_maxstep = 500  
/
&IONS
/
&CELL
/

ATOMIC_SPECIES
Mn 54.938044 mn_pbe_v1.5.uspp.F.UPF
La 138.90547 la_pbe_v1.uspp.F.UPF
O 15.999 o_pbe_v1.2.uspp.F.UPF
Ni  58.6934 ni_pbe_v1.4.uspp.F.UPF 

K_POINTS {automatic} 
4 4 1 0 0 0


CELL_PARAMETERS angstrom
7.86578549059086 0.00000000000000 0.00000000000000
0.00000000000000 7.86578549059086 0.00000000000000
0.00000000000000 0.00000000000000 40.73157098118172

ATOMIC_POSITIONS (angstrom)
La      0.011878953     -0.000403068    13.59937298     
Mn      1.977495174     1.966524041     15.14159206     
O       1.977270877     0.000242        15.19112807     
O       1.975223238     1.966847567     13.34161574     
O       0.010104397     1.966468683     15.19160536     
La      0.006599453     -0.002721041    17.17372695     
Mn      1.974196828     1.966703264     18.93482419     
O       1.97692903      0.001467519     18.89957176     
O       1.977197334     1.966204407     17.06168658     
O       0.012978806     1.966601819     18.89915173     
La      0.015712739     0.006901215     20.90046747     
Ni      1.976733635     1.968322942     22.65021189     
O       1.982130292     -0.064397862    22.58079647     
O       1.977953418     1.966751493     20.74827473     
O       -0.052267571    1.971502556     22.58068535     
La      -0.012872137    -0.019389694    24.85029167     
Mn      1.967668212     1.969214111     26.29559218     
O       1.981559786     0.095613771     26.35965249     
O       1.988676893     1.973089101     24.51819566     
O       0.118209809     1.970721508     26.36086685     
La      0.012016296     3.933354591     13.59933161     
Mn      1.977447948     5.899329948     15.14159449     
O       1.977248924     3.932720718     15.19176825     
O       1.975230295     5.898987192     13.34480483     
O       0.009513255     5.899375031     15.19477203     
La      0.006548219     3.935862496     17.17365395     
Mn      1.973899434     5.899670891     18.93455072     
O       1.976958849     3.931422088     18.89916359     
O       1.977565357     5.899650956     17.06310985     
O       0.013529694     5.899475178     18.90190585     
La      0.015758571     3.927168232     20.90005369     
Mn      1.954611602     5.902054758     22.68544208     
O       1.982015466     3.999356449     22.58232719    
O       1.985715828     5.899126711     20.75888174    
O       0.022954576     5.903316635     22.59455027     
La      -0.008727126    3.954045376     24.84503631     
Ni      1.966502563     5.901372793     26.40690634     
O       1.980888484     3.855549967     26.35566087     
O       1.998591867     5.903784267     24.46827451     
O       0.04349264      5.899287217     26.35845274     
La      3.945730448     -0.000392385    13.59938963     
Mn      5.910450312     1.966459562     15.14156511     
O       5.910118744     -0.000355292    15.19445003     
O       5.908546207     1.966566335     13.34475664     
O       3.942570636     1.96647386      15.1912359      
La      3.945099624     -0.002755008    17.17365396     
Mn      5.906992001     1.966528121     18.93456299     
O       5.909794191     0.002254259     18.90210621     
O       5.909765946     1.966782948     17.06303705     
O       3.942887458     1.966595289     18.89933557     
La      3.936478548     0.006377384     20.89998209     
Mn      5.910048394     1.948648823     22.68547612     
O       5.914060408     0.011530854     22.59384276     
O       5.91081528      1.975621126     20.75870214     
O       4.011872718     1.971494493     22.5818759      
La      3.961057472     -0.016712058    24.84676363     
Ni      5.888715494     1.958841891     26.40657265     
O       5.909729703     0.03400561      26.35826718     
O       5.920918217     1.988182817     24.46836754     
O       3.876084571     1.969869424     26.35675707     
La      3.945593272     3.933345408     13.59934891     
Mn      5.910357457     5.899299106     15.14283934     
O       5.910137519     3.933432849     15.19464916     
O       5.908568785     5.899322336     13.34510186     
O       3.943289286     5.899374399     15.19440441     
La      3.945143389     3.935888055     17.17362688     
Mn      5.906935411     5.89946925      18.94130588     
O       5.90978568      3.934848343     18.90193925     
O       5.910086867     5.899882179     17.06561417     
O       3.946087674     5.899504585     18.90243733     
La      3.936380062     3.927627521     20.89978688     
Mn      5.891595313     5.885132103     22.68250709     
O       5.914573125     3.967399212     22.59337006     
O       5.919632757     5.908891795     20.76725065     
O       3.978988312     5.903797612     22.59334308     
La      3.955957674     3.949912067     24.84117273     
Mn      5.890168055     5.881728139     26.41789669                     
O       5.908799973     3.926563908     26.36279844                     
O       5.929836221     5.919722367     24.46707942                     
O       3.936504893     5.898038883     26.36291148
